************************************************************************
file with basedata            : md342_.bas
initial value random generator: 1516214954
************************************************************************
projects                      :  1
jobs (incl. supersource/sink ):  22
horizon                       :  149
RESOURCES
  - renewable                 :  2   R
  - nonrenewable              :  2   N
  - doubly constrained        :  0   D
************************************************************************
PROJECT INFORMATION:
pronr.  #jobs rel.date duedate tardcost  MPM-Time
    1     20      0       19       16       19
************************************************************************
PRECEDENCE RELATIONS:
jobnr.    #modes  #successors   successors
   1        1          3           2   3   4
   2        3          3           5   6   8
   3        3          3           9  13  14
   4        3          3           6   9  17
   5        3          3          10  11  12
   6        3          2           7  20
   7        3          3          13  15  18
   8        3          3          10  13  14
   9        3          1          15
  10        3          2          15  20
  11        3          2          17  18
  12        3          2          14  19
  13        3          1          19
  14        3          1          17
  15        3          1          16
  16        3          2          19  21
  17        3          1          20
  18        3          1          21
  19        3          1          22
  20        3          1          22
  21        3          1          22
  22        1          0        
************************************************************************
REQUESTS/DURATIONS:
jobnr. mode duration  R 1  R 2  N 1  N 2
------------------------------------------------------------------------
  1      1     0       0    0    0    0
  2      1     3       8    8    0    8
         2     5       4    5    0    7
         3     8       3    4    0    7
  3      1     1       6   10    9    0
         2     7       4    5    8    0
         3    10       2    4    0    7
  4      1     1       9   10    0    9
         2     3       8    9    0    8
         3     6       7    9    0    8
  5      1     1       8    4    6    0
         2     5       8    3    0    9
         3     6       8    1    5    0
  6      1     1       8    6    8    0
         2     3       7    6    0    9
         3    10       7    5    7    0
  7      1     4       9    7    4    0
         2     8       6    6    0    6
         3    10       2    6    0    5
  8      1     5       7    4    5    0
         2     7       4    3    0    5
         3     8       3    3    3    0
  9      1     1       8    3    7    0
         2     2       7    2    6    0
         3     2       8    1    7    0
 10      1     1       5    4    8    0
         2     6       4    4    0    2
         3     9       4    3    0    2
 11      1     7       8    5    0    6
         2     7       7    6    0    6
         3     9       7    5    8    0
 12      1     3       6    7    0    7
         2     4       4    5    0    6
         3     8       1    1    5    0
 13      1     1       9    7    6    0
         2     2       7    6    0    7
         3     3       6    2    0    7
 14      1     3       5    4    0    3
         2     3       5    5    8    0
         3     6       5    4    6    0
 15      1     2       6    5    3    0
         2     7       4    5    0    6
         3     8       3    3    0    6
 16      1     3      10    5    3    0
         2     5       7    5    0    6
         3     7       6    1    1    0
 17      1     1      10    3    0    5
         2     7       6    1    0    4
         3     7       7    1    0    3
 18      1     1       9    7    4    0
         2     3       8    7    0    7
         3     8       7    4    1    0
 19      1     1       7    5    8    0
         2     2       6    5    0   10
         3     5       6    4    7    0
 20      1     2       9    9    0    8
         2     5       7    9    4    0
         3     9       7    8    0    3
 21      1     5       8   10    2    0
         2     9       7    7    2    0
         3    10       6    4    2    0
 22      1     0       0    0    0    0
************************************************************************
RESOURCEAVAILABILITIES:
  R 1  R 2  N 1  N 2
   19   19   76   95
************************************************************************
MAXIMAL LAGS:
from  to  type  delay
    1   22   ES      0
    1    2   ES      0
    2   22   ES      0
    1    3   ES      0
    3   22   ES      0
    1    4   ES      0
    4   22   ES      0
    1    5   ES      0
    5   22   ES      0
    1    6   ES      0
    6   22   ES      0
    1    7   ES      0
    7   22   ES      0
    1    8   ES      0
    8   22   ES      0
    1    9   ES      0
    9   22   ES      0
    1   10   ES      0
   10   22   ES      0
    1   11   ES      0
   11   22   ES      0
    1   12   ES      0
   12   22   ES      0
    1   13   ES      0
   13   22   ES      0
    1   14   ES      0
   14   22   ES      0
    1   15   ES      0
   15   22   ES      0
    1   16   ES      0
   16   22   ES      0
    1   17   ES      0
   17   22   ES      0
    1   18   ES      0
   18   22   ES      0
    1   19   ES      0
   19   22   ES      0
    1   20   ES      0
   20   22   ES      0
    1   21   ES      0
   21   22   ES      0
    1   22   ES      0
    2    5   SS      3
    2    5   SE      9
    5    2   SE      0
    2    5   ES      0
    2    5   EE      2
    2    6   SS     10
    2    6   SE     -5
    2    6   ES     12
    2    6   EE     -9
    2    8   SS      0
    2    8   SE     -8
    2    8   ES     -2
    2    8   EE     12
    3    9   SS     -8
    3    9   SE      0
    3    9   ES     12
    3    9   EE     -2
    3   13   SS     -3
    3   13   SE      9
    3   13   ES     11
    3   13   EE      1
    3   14   SS      7
    3   14   SE      0
    3   14   ES      5
    3   14   EE    -10
    4    6   SS     -1
    4    6   SE      3
    4    6   ES      9
    4    6   EE     11
    4    9   SS      6
    4    9   SE    -12
    4    9   ES     -5
    4    9   EE      7
    4   17   SS     -7
    4   17   SE     12
    4   17   ES     -5
    4   17   EE     -1
    5   10   SS     -1
    5   10   SE     -2
    5   10   ES      4
    5   10   EE    -12
    5   11   SS      7
    5   11   SE      7
    5   11   ES     12
    5   11   EE      0
    5   12   SS    -10
    5   12   SE      8
    5   12   ES     -5
    5   12   EE     -8
    6    7   SS      3
    6    7   SE     -6
    6    7   ES    -11
    6    7   EE     -6
    6   20   SS     -3
    6   20   SE      1
    6   20   ES    -10
    6   20   EE     -2
    7   13   SS      0
    7   13   SE      8
    7   13   ES     -7
    7   13   EE      1
    7   15   SS     -8
    7   15   SE     -3
    7   15   ES     -3
    7   15   EE      0
    7   18   SS      9
    7   18   SE      3
    7   18   ES    -11
    7   18   EE     -4
    8   10   SS      1
    8   10   SE     -7
    8   10   ES     -7
    8   10   EE      0
    8   13   SS      9
    8   13   SE      4
    8   13   ES     -9
    8   13   EE      2
    8   14   SS    -10
    8   14   SE     -1
    8   14   ES      9
    8   14   EE     11
    9   15   SS     -9
    9   15   SE      8
    9   15   ES      0
    9   15   EE    -12
   10   15   SS     -7
   10   15   SE     -2
   10   15   ES     -8
   10   15   EE      6
   10   20   SS      4
   10   20   SE      0
   10   20   ES      9
   10   20   EE      2
   11   17   SS    -12
   11   17   SE      3
   11   17   ES      8
   11   17   EE      9
   11   18   SS      0
   11   18   SE      1
   11   18   ES     12
   11   18   EE    -11
   12   14   SS     -3
   12   14   SE      1
   12   14   ES     -4
   12   14   EE     11
   12   19   SS      8
   12   19   SE     -9
   12   19   ES      7
   12   19   EE      2
   13   19   SS      4
   13   19   SE     -1
   13   19   ES     12
   13   19   EE      3
   14   17   SS     10
   14   17   SE     -2
   14   17   ES      5
   14   17   EE     -1
   15   16   SS     -9
   15   16   SE     -7
   15   16   ES      1
   15   16   EE      5
   16   19   SS     12
   16   19   SE      0
   16   19   ES      9
   16   19   EE    -10
   16   21   SS     -8
   16   21   SE    -12
   16   21   ES     -2
   16   21   EE     10
   17   20   SS      6
   17   20   SE     -4
   17   20   ES     -6
   17   20   EE      4
   18   21   SS      7
   18   21   SE     11
   18   21   ES      2
   18   21   EE      1
************************************************************************
